
  32    4
  10   10   10   10

   0   0   0   0   0  13 2 3 4 5 6 7 8 9 11 12 13 30 31 
   1   1   1   1   0   5 23 22 16 14 10 
   9   7   6   0   1   5 23 21 18 16 10 
   4   0   4   6   3   4 22 20 18 15 
   8   4   5   0   2   4 29 20 17 15 
   8   3   0   1   4   3 28 19 16 
   5   0   7   6   5   3 21 18 15 
  10   3   3   0   4   3 20 19 16 
   4   1   5   0   3   3 27 19 17 
   2   4   2   0   4   2 17 15 
   7   1   4   3   0   2 26 19 
  10   0   7   3   4   2 16 15 
   1   0   4   3   4   2 25 18 
   3   0   8   8   5   1 24 
   1   0   3   4   8   1 32
   2   0   4   3   3   1 32
   4   3   0   6   7   1 32
   1   2   5   5   0   1 32
   4   5   0   2   3   1 32
   6   4   3   0   6   1 32
   8   8   3   6   0   1 32
  10   5   1   6   0   1 32
   7   2   2   0   3   1 32
   8   8   4   5   0   1 32
   8   3   3   2   0   1 32
   5   3   0   4   4   1 32
   9   7   5   3   0   1 32
   8   3   5   0   6   1 32
   3   4   2   0   3   1 32
   1   6   2   0   2   1 32
   5   5   6   3   0   1 32
   0   0   0   0   0   0 
